min: 1 x1 + 1 x2 + 1 x3 + 1 x4 + 1 x5 + 1 x6 + 1 x7 + 1 x8 + 1 x9 + 1 x10 + 1 x11 + 1 x12 + 1 x13 + 1 x14 + 1 x15 + 1 x16 + 1 x17 + 1 x18 + 1 x19 + 1 x20 + 1 x21 + 1 x22 + 1 x23 + 1 x24 + 1 x25 + 1 x26 + 1 x27 + 1 x28 + 1 x29 + 1 x30 + 1 x31 + 1 x32 + 1 x33 + 1 x34 + 1 x35 + 1 x36 + 1 x37 + 1 x38 + 1 x39 + 1 x40 + 1 x41 + 1 x42 + 1 x43 + 1 x44 + 1 x45;

x38 + x32 + x17 + x3 + x31 >= 1;
x29 + x4 + x30 + x31 + x3 + x27 + x41 >= 1;
x17 + x38 + x35 + x25 + x8 >= 1;
x26 + x33 + x29 + x3 + x12 + x5 >= 1;
x1 + x42 + x41 + x3 + x13 + x10 + x22 + x38 >= 1;
x17 + x29 + x32 + x8 + x35 >= 1;
x21 + x43 + x16 + x45 + x33 + x25 + x26 >= 1;
x17 + x5 + x6 + x1 + x25 + x8 + x9 >= 1;
x34 + x15 + x27 + x40 + x35 >= 1;
x15 + x8 + x45 + x39 + x40 + x35 >= 1;
x29 + x33 >= 1;
x17 + x1 + x34 + x20 + x31 >= 1;
x35 + x40 >= 1;
x20 + x29 + x2 + x36 >= 1;
x7 + x39 + x17 + x26 + x9 + x37 + x28 + x14 >= 1;
x2 + x24 + x3 + x8 + x31 >= 1;
x41 + x21 + x32 + x20 + x35 + x2 + x38 >= 1;
x38 + x28 + x40 + x29 + x18 + x10 + x22 + x13 >= 1;
x23 + x24 + x21 + x2 + x28 >= 1;
x44 + x17 + x30 + x36 >= 1;
x45 + x32 + x38 + x17 >= 1;
x32 + x42 + x26 + x10 + x4 >= 1;
x30 >= 1;
x40 + x7 + x37 + x16 + x42 >= 1;
x28 + x35 + x43 + x16 + x42 + x2 + x39 >= 1;
x18 + x36 >= 1;
x44 >= 1;
x18 + x36 + x9 + x39 + x34 >= 1;
x4 >= 1;
x37 + x10 + x20 + x26 >= 1;
x1 + x16 + x25 + x22 + x26 + x18 + x6 >= 1;
x17 + x42 + x35 >= 1;
x23 + x1 + x27 >= 1;
x6 + x2 + x36 >= 1;
x32 + x41 >= 1;
x29 + x32 >= 1;
x37 + x39 + x23 + x33 + x43 + x30 + x19 >= 1;
x30 + x24 + x37 + x45 + x33 + x28 + x31 >= 1;
x18 + x35 + x31 >= 1;
x25 + x29 + x11 + x37 >= 1;
x35 >= 1;
x19 + x25 + x6 + x27 + x29 + x4 + x18 + x35 >= 1;
x6 + x14 + x18 >= 1;
x14 + x42 + x26 + x24 >= 1;
x27 + x8 + x23 + x45 + x6 + x1 + x33 + x43 >= 1;
x8 >= 1;
x31 + x16 + x20 + x44 + x39 + x23 + x32 >= 1;
x32 + x13 + x35 + x12 + x16 + x7 + x22 + x1 >= 1;
x3 + x27 + x26 + x44 + x16 + x41 + x4 + x23 >= 1;
x16 >= 1;
x41 + x31 + x23 + x9 + x45 >= 1;
x14 + x29 + x35 + x8 + x2 + x16 >= 1;
x38 >= 1;
x31 + x15 >= 1;
x11 + x9 + x20 + x16 + x6 + x5 + x3 + x45 >= 1;
x23 >= 1;
x37 + x4 + x27 + x21 + x45 + x36 >= 1;
x27 + x21 + x14 + x1 >= 1;
x3 + x6 + x40 + x10 + x11 + x24 >= 1;
x27 + x6 + x38 + x39 + x44 + x20 + x11 >= 1;
x16 >= 1;
x33 + x13 + x1 + x12 + x42 + x39 + x6 >= 1;
x5 + x27 + x24 + x4 + x43 + x21 + x28 >= 1;
x11 + x16 + x40 + x42 + x6 + x38 >= 1;
x8 >= 1;
x14 + x36 + x41 + x8 >= 1;
x14 + x6 + x15 + x1 + x28 + x25 >= 1;
x19 + x36 + x14 + x13 + x9 + x17 >= 1;
x42 + x11 + x10 + x23 + x7 + x8 + x40 >= 1;
x39 + x36 + x24 + x9 + x33 + x21 >= 1;
x32 + x5 + x27 + x29 + x21 + x14 + x37 >= 1;
x1 + x44 + x24 >= 1;
x1 + x40 + x37 + x22 + x27 + x44 + x33 >= 1;
x32 + x7 + x39 + x36 + x37 + x11 + x28 >= 1;
x17 + x16 >= 1;
x8 >= 1;
x23 + x44 + x13 + x18 + x15 + x5 >= 1;
x15 + x42 + x22 + x16 + x1 + x41 + x7 >= 1;
x7 + x34 >= 1;
x22 + x36 >= 1;
x41 + x27 + x25 + x20 + x14 + x35 + x28 + x32 >= 1;
x31 + x15 + x44 >= 1;
x10 + x24 + x30 + x28 + x16 >= 1;
x41 + x44 + x25 + x7 + x9 + x31 + x38 >= 1;
x29 + x5 + x34 + x39 + x30 + x13 >= 1;
x43 + x39 + x41 + x16 >= 1;
x31 + x30 + x41 + x33 + x12 + x34 + x40 + x9 >= 1;
x32 + x4 + x25 + x18 + x3 + x11 + x31 + x15 >= 1;
x28 + x7 + x23 >= 1;
x4 + x38 + x2 + x13 + x10 + x26 >= 1;
x33 + x42 + x14 + x1 + x24 >= 1;
x21 + x19 >= 1;
x12 + x8 + x45 >= 1;
x42 + x36 + x33 + x32 + x20 + x4 + x17 >= 1;
x32 >= 1;
x25 + x26 >= 1;
x30 + x22 + x19 + x10 + x17 + x39 >= 1;
x16 + x32 + x26 + x28 >= 1;
x18 + x45 + x24 + x21 + x4 + x22 + x35 >= 1;
x4 + x31 + x27 + x12 + x15 + x16 >= 1;
x2 >= 1;
x33 >= 1;
x24 + x26 + x1 + x22 + x14 + x17 + x39 >= 1;
x27 + x25 >= 1;
x11 + x18 >= 1;
x6 + x2 + x29 + x8 + x45 + x14 + x34 >= 1;
x35 + x16 + x5 + x31 + x24 + x10 + x22 >= 1;
x15 + x35 + x2 + x9 + x26 + x8 + x22 + x3 >= 1;
x41 + x10 + x1 + x12 + x4 >= 1;
x5 + x33 + x43 >= 1;
x1 + x45 + x2 + x13 >= 1;
x39 + x43 >= 1;
x45 + x10 + x5 + x33 + x40 + x26 + x27 + x36 >= 1;
x23 + x32 >= 1;
x45 + x4 + x18 + x22 + x28 + x13 + x29 + x21 >= 1;
x7 + x15 + x2 + x20 + x3 >= 1;
x19 + x24 + x28 + x25 + x3 + x8 + x16 >= 1;
x5 + x1 + x45 + x29 + x6 >= 1;
x13 + x25 + x15 + x41 >= 1;
x7 + x27 + x29 + x16 + x25 >= 1;
x32 + x7 + x18 + x8 + x28 + x11 + x29 + x33 >= 1;
x12 + x34 + x31 + x32 + x45 + x29 >= 1;
x11 + x23 + x22 + x12 + x24 + x10 + x19 >= 1;
x14 + x13 + x3 + x27 + x42 + x41 + x21 >= 1;
x15 + x27 + x21 + x17 + x37 >= 1;
x21 + x25 + x8 >= 1;
x35 + x24 + x5 + x23 + x15 + x36 + x6 + x37 >= 1;
x14 + x36 + x6 + x23 + x5 + x17 + x10 + x2 >= 1;
x17 + x15 + x13 + x5 + x39 + x21 >= 1;
x27 + x18 + x20 >= 1;
x41 + x19 + x13 + x18 + x1 >= 1;
x10 + x38 + x28 >= 1;
x29 + x24 + x7 + x9 + x18 + x21 >= 1;
x34 + x25 + x13 + x10 + x28 >= 1;
x16 + x42 + x44 >= 1;
x17 + x34 + x25 >= 1;
x7 + x13 + x40 + x6 + x15 + x24 + x9 + x3 >= 1;
x22 + x5 + x24 + x25 + x36 >= 1;
x41 + x12 + x13 + x33 + x14 >= 1;
x43 + x24 + x32 + x21 + x23 + x2 + x41 + x11 >= 1;
x11 + x4 >= 1;
x38 + x1 + x26 + x8 + x20 + x36 + x27 >= 1;
x21 + x7 + x20 + x13 >= 1;
x15 + x4 + x33 + x40 + x34 + x6 >= 1;
x40 + x37 + x10 + x18 + x22 >= 1;
x21 + x20 >= 1;
x41 + x2 + x3 + x45 + x17 + x39 + x22 + x4 >= 1;
x36 + x22 >= 1;
x18 + x22 + x3 + x5 + x35 >= 1;
x4 + x39 + x31 + x40 + x36 >= 1;
x1 + x36 + x34 + x44 + x2 >= 1;
x17 + x15 + x33 >= 1;
x14 + x38 + x36 + x11 + x7 >= 1;
x19 + x7 + x4 + x29 >= 1;
x10 >= 1;
x45 + x17 >= 1;
x35 + x12 + x9 + x7 + x41 >= 1;
x38 + x28 + x44 + x1 >= 1;
x14 + x13 + x26 >= 1;
x38 + x10 >= 1;
x4 >= 1;
x11 + x42 + x23 + x41 >= 1;
x23 + x3 >= 1;
x30 + x40 + x38 + x11 + x16 >= 1;
x23 + x12 + x4 + x34 + x2 + x22 + x30 >= 1;
x11 + x26 >= 1;
x9 + x3 + x6 >= 1;
x41 + x42 + x39 + x36 + x13 + x2 + x25 + x27 >= 1;
x13 + x3 + x27 + x17 + x20 >= 1;
x23 + x33 + x41 + x26 + x6 + x31 + x38 >= 1;
x18 + x31 + x25 + x24 + x7 + x19 >= 1;
x6 + x18 + x11 + x30 + x40 + x36 >= 1;
x37 + x6 + x31 + x9 + x12 + x45 + x17 + x5 >= 1;
x13 + x45 + x5 + x11 >= 1;
x34 >= 1;
x21 + x33 >= 1;
x28 + x32 + x25 + x44 + x26 + x18 + x41 >= 1;
x37 + x7 + x21 + x30 + x44 + x22 >= 1;
x24 + x41 + x13 + x2 + x35 + x17 + x1 + x37 >= 1;
x10 + x6 + x31 + x26 + x41 >= 1;
x23 >= 1;
x39 >= 1;
x6 + x33 >= 1;
x29 + x6 + x18 + x15 + x27 + x14 + x23 + x17 >= 1;
x40 + x29 + x4 >= 1;
x17 + x42 + x3 + x10 + x15 + x8 + x28 >= 1;
x18 + x21 + x36 + x32 + x29 >= 1;
x25 + x34 + x11 >= 1;
x20 + x43 + x9 + x10 + x3 + x23 + x2 + x45 >= 1;
x23 + x45 + x8 + x40 + x25 + x28 >= 1;
x33 >= 1;
x44 >= 1;
x28 + x4 + x6 + x26 + x9 >= 1;
x31 + x40 >= 1;
x29 >= 1;
x2 + x38 + x39 + x18 + x35 >= 1;
x20 + x41 + x39 + x10 + x26 >= 1;
x41 + x17 + x28 + x4 + x44 + x37 + x8 >= 1;
x37 + x4 >= 1;
x10 + x3 + x9 + x24 + x41 + x22 >= 1;
x33 + x5 + x44 + x7 + x30 + x27 + x3 + x1 >= 1;
x30 + x4 + x34 + x13 + x15 + x22 + x32 >= 1;
x16 + x15 + x41 >= 1;
x28 + x8 + x27 + x3 + x18 + x26 + x37 >= 1;
x41 + x1 + x33 + x36 + x35 + x30 + x26 + x23 >= 1;
x45 + x27 + x5 + x31 + x11 >= 1;
x32 + x19 + x20 + x39 + x21 + x7 + x40 + x42 >= 1;
x36 + x14 >= 1;
x14 + x3 + x29 + x41 + x20 + x27 >= 1;
x3 + x26 + x6 + x32 + x15 + x38 >= 1;
x33 + x27 + x28 + x16 + x1 + x18 + x26 + x20 >= 1;
x15 + x23 + x1 + x28 + x16 + x2 + x8 >= 1;
x2 + x5 + x15 + x8 + x11 + x35 + x7 >= 1;
x7 + x28 >= 1;
x35 + x33 >= 1;
x40 + x10 + x11 + x38 >= 1;
x41 + x33 + x19 + x22 >= 1;
x10 + x18 + x5 + x43 + x24 >= 1;
x2 + x38 + x34 + x18 + x45 + x26 + x5 + x4 >= 1;
x20 + x45 + x38 >= 1;
x2 + x27 + x3 + x25 + x21 + x19 + x9 >= 1;
x32 + x3 + x20 >= 1;
x4 + x2 + x30 + x44 + x36 + x20 + x25 + x27 >= 1;
x38 + x34 + x26 + x11 + x36 >= 1;
x39 >= 1;
x24 >= 1;
x31 + x20 + x9 + x7 + x45 + x3 >= 1;
x26 + x6 >= 1;
x4 + x16 + x6 + x11 + x45 + x43 >= 1;
x41 + x45 + x11 + x43 >= 1;
x22 + x20 + x31 + x4 >= 1;
x45 + x18 + x8 >= 1;
x20 + x29 + x34 + x22 + x18 + x38 >= 1;
x25 + x20 + x32 + x43 + x44 >= 1;
x18 + x19 + x28 + x1 + x7 + x25 >= 1;
x42 + x16 + x19 + x32 + x27 >= 1;
x9 + x7 + x26 + x14 + x30 + x16 + x18 + x10 >= 1;
x32 >= 1;
x4 + x21 + x16 + x1 + x5 >= 1;
x8 + x14 + x2 + x16 + x18 + x17 >= 1;
x12 >= 1;
x28 + x33 + x21 + x5 + x35 >= 1;
x18 + x34 + x26 + x17 + x36 + x25 + x7 + x13 >= 1;
x7 + x33 >= 1;
x28 + x5 >= 1;
x2 + x5 + x1 >= 1;
x36 + x31 + x23 + x29 + x15 + x20 >= 1;
x11 + x31 + x29 + x15 + x3 + x23 + x35 >= 1;
x38 + x26 + x29 + x11 + x44 + x23 + x18 >= 1;
x25 + x23 + x32 + x5 >= 1;
x40 + x24 + x35 >= 1;
x13 >= 1;
x34 + x31 + x12 + x3 + x44 + x1 >= 1;
x26 + x10 + x27 + x9 >= 1;
x17 >= 1;
x5 + x36 + x34 + x15 + x17 + x18 + x9 >= 1;
x41 + x18 + x2 + x31 >= 1;
x41 + x39 + x17 + x19 + x44 + x10 + x15 + x38 >= 1;
x10 + x7 + x24 + x29 + x38 + x35 + x32 + x5 >= 1;
x34 + x39 + x40 + x33 + x29 + x19 + x20 >= 1;
x15 + x10 >= 1;
x27 >= 1;
x6 + x45 + x22 + x32 + x17 + x4 + x37 + x19 >= 1;
x31 + x16 + x15 + x10 + x23 + x4 + x19 >= 1;
x28 + x19 + x38 >= 1;
x19 + x13 + x23 + x26 + x45 >= 1;
x29 + x21 + x32 + x45 + x33 + x14 >= 1;
x10 >= 1;
x37 + x42 + x10 + x14 + x26 >= 1;
x4 + x43 + x39 >= 1;
x28 >= 1;
x41 + x11 + x3 >= 1;
x33 + x6 + x17 >= 1;
x25 + x43 + x45 + x14 + x44 + x41 + x17 >= 1;
x20 + x33 + x6 + x18 + x36 + x13 + x11 >= 1;
x33 + x22 + x2 + x24 + x5 + x7 >= 1;
x7 + x27 + x33 + x45 >= 1;
x6 + x18 + x31 >= 1;
x34 + x6 + x1 + x16 + x42 + x4 + x13 >= 1;
x44 >= 1;
x34 + x5 + x25 + x29 + x10 + x44 >= 1;
x36 + x1 + x30 + x26 + x41 >= 1;
x6 + x22 + x24 + x39 + x40 + x25 + x20 + x19 >= 1;
x8 >= 1;
x22 + x44 + x30 + x11 + x9 >= 1;
x33 + x19 + x30 >= 1;
x36 >= 1;
x16 + x8 + x6 + x22 + x11 >= 1;
x18 + x10 + x14 + x34 + x42 >= 1;
x11 + x6 + x12 + x18 + x31 + x21 + x22 >= 1;
x28 + x30 >= 1;
x15 + x30 + x43 + x4 + x40 + x34 >= 1;
x35 + x23 + x34 + x20 + x22 + x18 + x44 + x37 >= 1;
x37 + x41 + x6 + x16 + x25 + x2 + x20 + x8 >= 1;
x13 + x34 + x3 >= 1;
x2 + x27 + x8 >= 1;
x9 + x43 >= 1;
x12 + x20 + x7 + x42 + x11 + x40 >= 1;
x27 + x10 + x22 + x4 + x1 + x5 + x28 + x13 >= 1;
x38 + x32 + x4 + x5 + x20 + x43 + x1 >= 1;
x36 + x41 + x44 + x35 + x28 >= 1;
x18 + x40 + x16 + x39 + x10 + x7 + x23 >= 1;
x16 + x34 + x4 + x9 + x26 + x22 + x39 >= 1;
x33 + x10 + x2 + x5 >= 1;
x1 + x43 + x12 + x15 + x37 + x2 + x25 + x11 >= 1;
x43 + x1 + x44 + x14 + x30 + x7 + x21 + x31 >= 1;
x45 + x1 + x18 + x16 >= 1;
x42 + x25 + x35 + x26 >= 1;
x10 + x28 + x36 + x37 + x38 + x16 + x40 >= 1;
x24 + x5 + x45 + x3 + x11 + x8 + x18 >= 1;
x20 + x12 + x21 + x18 + x1 + x14 + x26 + x44 >= 1;
x38 + x15 >= 1;
x45 + x4 + x28 >= 1;
x27 + x20 + x12 + x16 >= 1;
x3 >= 1;
x41 + x44 >= 1;
x4 >= 1;
x34 + x44 + x41 >= 1;
x4 >= 1;
x30 + x38 + x31 >= 1;
x37 + x17 >= 1;
x16 + x45 >= 1;
x34 + x38 >= 1;
x32 + x35 + x20 + x37 + x6 + x11 + x4 + x44 >= 1;
x21 + x20 >= 1;
x28 >= 1;
x19 + x13 >= 1;
x25 + x16 + x32 + x28 + x20 + x14 + x4 + x24 >= 1;
x38 + x41 + x17 + x28 + x8 + x31 >= 1;
x20 + x6 >= 1;
x23 + x14 + x35 + x3 >= 1;
x27 + x5 + x13 >= 1;
x29 + x11 + x1 + x15 + x26 >= 1;
x36 >= 1;
x12 + x34 + x5 + x42 >= 1;
x28 + x22 + x18 + x8 + x13 + x37 + x10 >= 1;
x32 + x35 + x12 + x25 + x27 + x13 + x30 >= 1;
x8 >= 1;
x22 >= 1;
x27 + x39 + x11 + x9 + x1 >= 1;
x24 + x38 + x3 + x35 + x2 + x27 + x9 >= 1;
x2 + x24 >= 1;
x37 >= 1;
x11 + x35 + x30 + x45 + x44 + x19 + x28 >= 1;
x39 + x7 + x5 + x34 + x31 + x11 + x8 >= 1;
x6 + x28 + x10 + x16 + x5 >= 1;
x3 >= 1;
x36 >= 1;
x11 + x14 >= 1;
x41 + x18 + x22 + x11 + x30 + x13 + x5 + x31 >= 1;
x34 + x36 + x14 + x18 + x26 + x43 >= 1;
x5 + x42 + x27 + x40 + x9 + x12 + x6 >= 1;
x32 + x39 >= 1;
x24 + x12 + x8 + x3 + x38 >= 1;
x5 + x6 + x45 + x2 >= 1;
x14 + x37 + x25 + x40 + x38 + x30 + x8 >= 1;
x36 + x31 + x25 >= 1;
x41 + x10 + x5 >= 1;
x13 + x38 + x5 + x36 >= 1;
x31 + x9 + x25 + x33 + x43 + x4 + x5 >= 1;
x29 + x15 + x6 + x19 + x2 + x25 + x38 + x17 >= 1;
x1 + x30 + x27 >= 1;
x20 + x4 >= 1;
x17 + x41 + x18 + x9 + x22 + x42 + x43 + x13 >= 1;
x10 + x33 + x39 + x5 + x4 >= 1;
x26 + x29 + x19 + x13 >= 1;
x6 + x26 + x30 + x42 + x1 + x10 + x25 >= 1;
x6 + x2 >= 1;
x41 + x31 >= 1;
x3 + x38 + x16 + x27 >= 1;
x39 >= 1;
x9 + x30 + x23 + x3 + x31 + x28 + x33 + x25 >= 1;
x23 + x6 + x13 + x44 + x40 + x4 >= 1;
x16 + x36 + x28 + x2 + x17 + x21 + x32 + x45 >= 1;
x17 + x18 + x1 + x21 + x45 + x33 + x30 >= 1;
x23 + x44 + x3 + x45 + x5 + x31 + x10 >= 1;
x43 + x24 + x10 + x12 + x42 + x18 + x37 + x6 >= 1;
x19 + x37 + x36 + x34 + x18 >= 1;
x35 >= 1;
x7 + x37 + x20 + x2 + x3 + x4 + x15 + x24 >= 1;
x20 + x11 + x28 + x35 + x17 + x7 >= 1;
x40 + x43 + x3 >= 1;
x19 + x13 + x21 + x18 + x25 + x37 >= 1;
x10 + x11 + x22 + x37 >= 1;
x19 + x21 + x42 + x25 + x40 + x2 + x12 + x18 >= 1;
x16 + x2 + x8 >= 1;
x11 + x10 + x43 >= 1;
x12 + x18 + x16 + x3 >= 1;
x25 + x6 + x5 + x40 >= 1;
x6 + x7 + x25 + x28 + x5 + x24 + x38 >= 1;
x17 + x26 + x34 + x20 + x35 + x10 + x14 + x24 >= 1;
x43 + x8 + x37 + x19 + x39 + x1 + x33 >= 1;
x43 + x14 + x32 >= 1;
x7 + x15 + x24 + x42 + x31 >= 1;
x27 + x19 + x17 >= 1;
x11 >= 1;
x39 + x32 + x18 + x15 + x11 + x6 + x10 >= 1;
x4 + x14 >= 1;
x13 + x29 + x7 + x23 >= 1;
x21 + x10 + x19 + x40 + x38 + x35 >= 1;

bin x1, x2, x3, x4, x5, x6, x7, x8, x9, x10, x11, x12, x13, x14, x15, x16, x17, x18, x19, x20, x21, x22, x23, x24, x25, x26, x27, x28, x29, x30, x31, x32, x33, x34, x35, x36, x37, x38, x39, x40, x41, x42, x43, x44, x45;
